2648,2649,2650,2676,2677,2678,2679,2680,2705,2706,2707,2734,3056,3083,3084,3085,3086,3112,3113,3114,3115,3116,3139,3140,3141,3142,3143,3144,3145,3168,3169,3491,3492,3519,3520,3521,3547,3548,3549,3550,3551,3574,3575,3576,3577,3578,3579,3580,3603,3604,3927,3955,3956,3983,3984,3985,4011,4012,4013,4014,4419,4420,4447,4448,4449,4883;2268,2269,2296,2297,2298,2703,2704,2731,2732,2733,3167;2186,2214,2215,2216,2244,2245,2621,2622,2623,2651,2652,2653,2681,3057,3058,3087;1369,1370,1371,1398,1399,1400,1776,1777,1778,1803,1804,1805,1806,1807,1808,1832,1833,1834,1835,1836,1862,1863,2211,2212,2213,2240,2241,2242,2243,2270,2271,2272,2299,2647;523,524,552,932,933,934,958,959,960,961,962,963,964,990,991,992,1016,1017,1367,1368,1395,1396,1397,1425,1426,1427,1451,1452,1860,1861,2295;116,522,551,1015